# Rhodopsin model

units           real  
neigh_modify    delay 5 every 1   

atom_style      full  
bond_style      harmonic 
angle_style     charmm 
dihedral_style  charmm 
improper_style  harmonic 
pair_style      {{pair_style}} 8.0 10.0 
pair_modify     mix arithmetic 
kspace_style    {{kspace_style}} {{accuracy}}
kspace_modify   {{kspace_modify}}

read_data       data.rhodo

fix             1 all shake 0.0001 5 0 m 1.0 a 232
fix             2 all npt temp 300.0 300.0 100.0 &
                z 0.0 0.0 1000.0 mtk no pchain 0 tchain 1

special_bonds   charmm
 
thermo          50
thermo_style    custom step etotal cpu 
timestep        2.0

run             1
