# LAMMPS coeff file via write_coeff, version 29 Sep 2016
# pair_style lj/charmm/coul/long
pair_coeff 1 1 0.11 3.56359 0.11 3.56359
pair_coeff 1 2 0.0938083 3.61705 0.0331662 3.4745
pair_coeff 1 3 0.114891 3.29633 0.114891 3.02906
pair_coeff 1 4 0.0491935 2.95778 0.0491935 2.95778
pair_coeff 1 5 0.148324 3.42996 0.148324 3.16269
pair_coeff 1 6 0.0469042 3.80859 0.0331662 3.4745
pair_coeff 1 7 0.0777817 3.7195 0.0331662 3.4745
pair_coeff 1 8 0.0877496 3.55682 0.0877496 3.55682
pair_coeff 1 9 0.129348 3.35869 0.129348 3.35869
pair_coeff 1 10 0.0711337 1.9818 0.0711337 1.9818
pair_coeff 1 11 0.0574456 2.99182 0.0574456 2.99182
pair_coeff 1 12 0.222486 3.56359 0.222486 3.56359
pair_coeff 1 13 0.129348 3.35708 0.129348 3.35708
pair_coeff 1 14 0.0711337 1.9818 0.0711337 1.9818
pair_coeff 2 2 0.08 3.6705 0.01 3.38542
pair_coeff 2 3 0.0979796 3.34978 0.034641 2.93997
pair_coeff 2 4 0.0419524 3.01124 0.0148324 2.86869
pair_coeff 2 5 0.126491 3.48341 0.0447214 3.0736
pair_coeff 2 6 0.04 3.86205 0.01 3.38542
pair_coeff 2 7 0.0663325 3.77296 0.01 3.38542
pair_coeff 2 8 0.0748331 3.61028 0.0264575 3.46773
pair_coeff 2 9 0.110309 3.41214 0.039 3.2696
pair_coeff 2 10 0.060663 2.03526 0.0214476 1.89271
pair_coeff 2 11 0.0489898 3.04527 0.0173205 2.90273
pair_coeff 2 12 0.189737 3.61705 0.067082 3.4745
pair_coeff 2 13 0.110309 3.41054 0.039 3.26799
pair_coeff 2 14 0.060663 2.03526 0.0214476 1.89271
pair_coeff 3 3 0.12 3.02906 0.12 2.49452
pair_coeff 3 4 0.0513809 2.69051 0.0513809 2.42324
pair_coeff 3 5 0.154919 3.16269 0.154919 2.62815
pair_coeff 3 6 0.0489898 3.54132 0.034641 2.93997
pair_coeff 3 7 0.0812404 3.45223 0.034641 2.93997
pair_coeff 3 8 0.0916515 3.28955 0.0916515 3.02228
pair_coeff 3 9 0.1351 3.09142 0.1351 2.82415
pair_coeff 3 10 0.0742967 1.71454 0.0742967 1.44727
pair_coeff 3 11 0.06 2.72455 0.06 2.45728
pair_coeff 3 12 0.232379 3.29633 0.232379 3.02906
pair_coeff 3 13 0.1351 3.08981 0.1351 2.82254
pair_coeff 3 14 0.0742967 1.71454 0.0742967 1.44727
pair_coeff 4 4 0.022 2.35197 0.022 2.35197
pair_coeff 4 5 0.0663325 2.82415 0.0663325 2.55688
pair_coeff 4 6 0.0209762 3.20278 0.0148324 2.86869
pair_coeff 4 7 0.0347851 3.11369 0.0148324 2.86869
pair_coeff 4 8 0.0392428 2.95101 0.0392428 2.95101
pair_coeff 4 9 0.0578463 2.75288 0.0578463 2.75288
pair_coeff 4 10 0.0318119 1.37599 0.0318119 1.37599
pair_coeff 4 11 0.0256905 2.386 0.0256905 2.386
pair_coeff 4 12 0.0994987 2.95778 0.0994987 2.95778
pair_coeff 4 13 0.0578463 2.75127 0.0578463 2.75127
pair_coeff 4 14 0.0318119 1.37599 0.0318119 1.37599
pair_coeff 5 5 0.2 3.29632 0.2 2.76179
pair_coeff 5 6 0.0632456 3.67496 0.0447214 3.0736
pair_coeff 5 7 0.104881 3.58587 0.0447214 3.0736
pair_coeff 5 8 0.118322 3.42319 0.118322 3.15592
pair_coeff 5 9 0.174413 3.22505 0.174413 2.95778
pair_coeff 5 10 0.0959166 1.84817 0.0959166 1.5809
pair_coeff 5 11 0.0774597 2.85818 0.0774597 2.59091
pair_coeff 5 12 0.3 3.42996 0.3 3.16269
pair_coeff 5 13 0.174413 3.22345 0.174413 2.95618
pair_coeff 5 14 0.0959166 1.84817 0.0959166 1.5809
pair_coeff 6 6 0.02 4.05359 0.01 3.38542
pair_coeff 6 7 0.0331662 3.9645 0.01 3.38542
pair_coeff 6 8 0.0374166 3.80182 0.0264575 3.46773
pair_coeff 6 9 0.0551543 3.60369 0.039 3.2696
pair_coeff 6 10 0.0303315 2.2268 0.0214476 1.89271
pair_coeff 6 11 0.0244949 3.23681 0.0173205 2.90273
pair_coeff 6 12 0.0948683 3.80859 0.067082 3.4745
pair_coeff 6 13 0.0551543 3.60208 0.039 3.26799
pair_coeff 6 14 0.0303315 2.2268 0.0214476 1.89271
pair_coeff 7 7 0.055 3.87541 0.01 3.38542
pair_coeff 7 8 0.0620484 3.71273 0.0264575 3.46773
pair_coeff 7 9 0.0914631 3.5146 0.039 3.2696
pair_coeff 7 10 0.0502991 2.13771 0.0214476 1.89271
pair_coeff 7 11 0.0406202 3.14772 0.0173205 2.90273
pair_coeff 7 12 0.157321 3.7195 0.067082 3.4745
pair_coeff 7 13 0.0914631 3.51299 0.039 3.26799
pair_coeff 7 14 0.0502991 2.13771 0.0214476 1.89271
pair_coeff 8 8 0.07 3.55005 0.07 3.55005
pair_coeff 8 9 0.103184 3.35192 0.103184 3.35192
pair_coeff 8 10 0.056745 1.97503 0.056745 1.97503
pair_coeff 8 11 0.0458258 2.98505 0.0458258 2.98505
pair_coeff 8 12 0.177482 3.55682 0.177482 3.55682
pair_coeff 8 13 0.103184 3.35031 0.103184 3.35031
pair_coeff 8 14 0.056745 1.97503 0.056745 1.97503
pair_coeff 9 9 0.1521 3.15378 0.1521 3.15378
pair_coeff 9 10 0.0836457 1.7769 0.0836457 1.7769
pair_coeff 9 11 0.06755 2.78691 0.06755 2.78691
pair_coeff 9 12 0.26162 3.35869 0.26162 3.35869
pair_coeff 9 13 0.1521 3.15218 0.1521 3.15218
pair_coeff 9 14 0.0836457 1.7769 0.0836457 1.7769
pair_coeff 10 10 0.046 0.400014 0.046 0.400014
pair_coeff 10 11 0.0371484 1.41003 0.0371484 1.41003
pair_coeff 10 12 0.143875 1.9818 0.143875 1.9818
pair_coeff 10 13 0.0836457 1.77529 0.0836457 1.77529
pair_coeff 10 14 0.046 0.400014 0.046 0.400014
pair_coeff 11 11 0.03 2.42004 0.03 2.42004
pair_coeff 11 12 0.11619 2.99182 0.11619 2.99182
pair_coeff 11 13 0.06755 2.7853 0.06755 2.7853
pair_coeff 11 14 0.0371484 1.41003 0.0371484 1.41003
pair_coeff 12 12 0.45 3.56359 0.45 3.56359
pair_coeff 12 13 0.26162 3.35708 0.26162 3.35708
pair_coeff 12 14 0.143875 1.9818 0.143875 1.9818
pair_coeff 13 13 0.1521 3.15057 0.1521 3.15057
pair_coeff 13 14 0.0836457 1.77529 0.0836457 1.77529
pair_coeff 14 14 0.046 0.400014 0.046 0.400014

# bond_style harmonic
bond_coeff 1 250 1.49
bond_coeff 2 620 1.23
bond_coeff 3 370 1.345
bond_coeff 4 322 1.111
bond_coeff 5 320 1.43
bond_coeff 6 440 0.997
bond_coeff 7 222.5 1.538
bond_coeff 8 330 1.08
bond_coeff 9 230 1.49
bond_coeff 10 309 1.111
bond_coeff 11 305 1.375
bond_coeff 12 340 1.08
bond_coeff 13 334.3 1.411
bond_coeff 14 545 0.96
bond_coeff 15 222.5 1.53
bond_coeff 16 198 1.818
bond_coeff 17 240 1.816
bond_coeff 18 450 0.9572

# angle_style charmm
angle_coeff 1 33 109.5 30 2.163
angle_coeff 2 50 120 0 0
angle_coeff 3 34 123 0 0
angle_coeff 4 80 121 0 0
angle_coeff 5 80 116.5 0 0
angle_coeff 6 80 122.5 0 0
angle_coeff 7 35.5 108.4 5.4 1.802
angle_coeff 8 50 107 0 0
angle_coeff 9 70 113.5 0 0
angle_coeff 10 48 108 0 0
angle_coeff 11 35 117 0 0
angle_coeff 12 51.8 107.5 0 0
angle_coeff 13 33.43 110.1 22.53 2.179
angle_coeff 14 52 108 0 0
angle_coeff 15 50 109.5 0 0
angle_coeff 16 35 111 0 0
angle_coeff 17 45.8 122.3 0 0
angle_coeff 18 49.3 107.5 0 0
angle_coeff 19 40 120 35 2.4162
angle_coeff 20 30 120 22 2.1525
angle_coeff 21 45.2 120 0 0
angle_coeff 22 65 108 0 0
angle_coeff 23 35.5 109 5.4 1.802
angle_coeff 24 36 115 0 0
angle_coeff 25 58.35 113.5 11.16 2.561
angle_coeff 26 58 114.5 0 0
angle_coeff 27 26.5 110.1 22.53 2.179
angle_coeff 28 34 95 0 0
angle_coeff 29 46.1 111.3 0 0
angle_coeff 30 51.5 109.5 0 0
angle_coeff 31 55 104.52 0 0

# dihedral_style charmm
dihedral_coeff 1 0.2 1 180 1
dihedral_coeff 2 1.8 1 0 1
dihedral_coeff 3 0 1 0 1
dihedral_coeff 4 1.6 1 0 0.5
dihedral_coeff 5 2.5 2 180 0.5
dihedral_coeff 6 2.5 2 180 1
dihedral_coeff 7 0.6 1 0 1
dihedral_coeff 8 0.2 3 0 1
dihedral_coeff 9 0.23 2 180 1
dihedral_coeff 10 0.04 3 0 1
dihedral_coeff 11 1.4 1 0 1
dihedral_coeff 12 3.1 2 180 1
dihedral_coeff 13 4.2 2 180 1
dihedral_coeff 14 3.1 2 180 0.5
dihedral_coeff 15 0.99 2 180 1
dihedral_coeff 16 2.4 2 180 1
dihedral_coeff 17 0.195 3 0 1
dihedral_coeff 18 0.24 1 180 0.5
dihedral_coeff 19 0.37 3 0 0.5
dihedral_coeff 20 0.28 3 0 1
dihedral_coeff 21 0.01 3 0 1

# improper_style harmonic
improper_coeff 1 120 0
improper_coeff 2 20 0

